11
2147483647 67 79 60 16 1 43 3 15 3 92 
67 2147483647 96 80 16 75 47 49 47 36 5 
79 96 2147483647 21 75 95 65 95 8 61 82 
60 80 21 2147483647 40 75 48 58 25 2 19 
16 16 75 40 2147483647 32 37 33 15 81 63 
1 75 95 75 32 2147483647 26 97 24 71 20 
43 47 65 48 37 26 2147483647 4 7 69 93 
3 49 95 58 33 97 4 2147483647 96 14 55 
15 47 8 25 15 24 7 96 2147483647 29 31 
3 36 61 2 81 71 69 14 29 2147483647 84 
92 5 82 19 63 20 93 55 31 84 2147483647 
